NAME: random_10_6
TYPE: TSP
COMMENT: random_10_6
DIMENSION: 10
EDGE_WEIGHT_TYPE: EUC_2D
NODE_COORD_SECTION
1 302 77
2 331 390
3 346 317
4 440 439
5 432 95
6 18 150
7 146 281
8 262 392
9 338 261
10 104 308
